n_machines = 10;
n_resources = 17;
n_jobs = 28;
horizon = 124;
LB = 18;
n_jobs_per_resource = [1, 2, 2, 2, 2, 1, 3, 1, 3, 1, 1, 3, 2, 1, 1, 1, 1];
duration = [2, 3, 5, 3, 1, 7, 4, 3, 7, 5, 1, 1, 1, 9, 5, 5, 8, 7, 4, 1, 7, 7, 5, 4, 4, 9, 5, 1]